22      4       
13      14      13      13      
0       0       0       0       0       3       2       3       4       
9       0       9       8       5       1       10      
4       9       10      4       3       1       5       
2       5       6       7       5       2       6       7       
2       6       1       8       1       1       7       
5       1       0       0       1       2       8       16      
8       0       0       6       3       3       9       10      21      
3       4       5       8       10      2       11      21      
5       9       3       5       6       1       16      
5       0       9       0       0       1       12      
2       9       0       9       0       2       13      14      
10      0       0       7       6       2       14      16      
1       3       2       7       0       1       15      
4       7       0       3       4       1       20      
6       7       1       9       10      2       17      18      
5       2       2       3       8       1       18      
7       6       7       3       0       1       19      
1       0       3       2       5       1       22      
7       0       0       0       10      1       22      
9       5       9       6       0       1       22      
2       8       4       9       2       1       22      
0       0       0       0       0       0       
